<?xml version = "1.0" standalone="yes"?>
<!-- This file has been generated by DOcplex version 2.23.222  -->
<CPLEXSolution version="1.0">
 <header
   problemName="CVRP"
   objectiveValue="19161"
  />
 <variables>
  <variable name="x_0_1" index="0" value="1.00000"/>
  <variable name="x_0_2" index="1" value="1.00000"/>
  <variable name="x_0_3" index="2" value="1.00000"/>
  <variable name="x_0_5" index="4" value="1.00000"/>
  <variable name="x_0_9" index="8" value="1.00000"/>
  <variable name="x_0_11" index="10" value="1.00000"/>
  <variable name="x_0_12" index="11" value="1.00000"/>
  <variable name="x_0_13" index="12" value="1.00000"/>
  <variable name="x_0_17" index="16" value="1.00000"/>
  <variable name="x_0_18" index="17" value="1.00000"/>
  <variable name="x_0_21" index="20" value="1.00000"/>
  <variable name="x_0_24" index="23" value="1.00000"/>
  <variable name="x_0_25" index="24" value="1.00000"/>
  <variable name="x_0_26" index="25" value="1.00000"/>
  <variable name="x_0_27" index="26" value="1.00000"/>
  <variable name="x_0_28" index="27" value="1.00000"/>
  <variable name="x_1_29" index="57" value="1.00000"/>
  <variable name="x_2_7" index="64" value="1.00000"/>
  <variable name="x_3_0" index="87" value="1.00000"/>
  <variable name="x_4_15" index="130" value="1.00000"/>
  <variable name="x_5_22" index="166" value="1.00000"/>
  <variable name="x_6_19" index="192" value="1.00000"/>
  <variable name="x_7_0" index="203" value="1.00000"/>
  <variable name="x_8_0" index="232" value="1.00000"/>
  <variable name="x_9_0" index="261" value="1.00000"/>
  <variable name="x_10_0" index="290" value="1.00000"/>
  <variable name="x_11_16" index="334" value="1.00000"/>
  <variable name="x_12_0" index="348" value="1.00000"/>
  <variable name="x_13_10" index="387" value="1.00000"/>
  <variable name="x_14_0" index="406" value="1.00000"/>
  <variable name="x_15_0" index="435" value="1.00000"/>
  <variable name="x_16_0" index="464" value="1.00000"/>
  <variable name="x_17_23" index="515" value="1.00000"/>
  <variable name="x_18_0" index="522" value="1.00000"/>
  <variable name="x_19_0" index="551" value="1.00000"/>
  <variable name="x_20_6" index="586" value="1.00000"/>
  <variable name="x_21_0" index="609" value="1.00000"/>
  <variable name="x_22_0" index="638" value="1.00000"/>
  <variable name="x_23_0" index="667" value="1.00000"/>
  <variable name="x_24_20" index="716" value="1.00000"/>
  <variable name="x_25_8" index="733" value="1.00000"/>
  <variable name="x_26_4" index="758" value="1.00000"/>
  <variable name="x_27_0" index="783" value="1.00000"/>
  <variable name="x_28_14" index="826" value="1.00000"/>
  <variable name="x_29_0" index="841" value="1.00000"/>
  <variable name="u_1" index="870" value="33.00000"/>
  <variable name="u_2" index="871" value="16.00000"/>
  <variable name="u_3" index="872" value="33.00000"/>
  <variable name="u_4" index="873" value="29.00000"/>
  <variable name="u_5" index="874" value="9.00000"/>
  <variable name="u_6" index="875" value="31.00000"/>
  <variable name="u_7" index="876" value="34.00000"/>
  <variable name="u_8" index="877" value="32.00000"/>
  <variable name="u_9" index="878" value="33.00000"/>
  <variable name="u_10" index="879" value="35.00000"/>
  <variable name="u_11" index="880" value="24.00000"/>
  <variable name="u_12" index="881" value="28.00000"/>
  <variable name="u_13" index="882" value="20.00000"/>
  <variable name="u_14" index="883" value="35.00000"/>
  <variable name="u_15" index="884" value="35.00000"/>
  <variable name="u_16" index="885" value="31.00000"/>
  <variable name="u_17" index="886" value="15.00000"/>
  <variable name="u_18" index="887" value="35.00000"/>
  <variable name="u_19" index="888" value="35.00000"/>
  <variable name="u_20" index="889" value="27.00000"/>
  <variable name="u_21" index="890" value="35.00000"/>
  <variable name="u_22" index="891" value="32.00000"/>
  <variable name="u_23" index="892" value="33.00000"/>
  <variable name="u_24" index="893" value="8.00000"/>
  <variable name="u_25" index="894" value="8.00000"/>
  <variable name="u_26" index="895" value="20.00000"/>
  <variable name="u_27" index="896" value="35.00000"/>
  <variable name="u_28" index="897" value="8.00000"/>
  <variable name="u_29" index="898" value="35.00000"/>
 </variables>
</CPLEXSolution>
